;; unsat

(declare-const x1 sl.list.loc)
(declare-const x2 sl.list.loc)
(declare-const x3 sl.list.loc)
(declare-const x4 sl.list.loc)
(declare-const x5 sl.list.loc)
(declare-const x6 sl.list.loc)
(declare-const x7 sl.list.loc)
(declare-const x8 sl.list.loc)
(declare-const x9 sl.list.loc)
(declare-const x10 sl.list.loc)
(declare-const x11 sl.list.loc)

(assert (sl.sepcon (sl.sepcon (sl.sepcon (sl.sepcon (sl.sepcon (sl.sepcon (sl.sepcon (sl.sepcon (sl.sepcon (sl.list.eq sl.list.null sl.list.null)
 (sl.list.neq x8 x9)
)
 (sl.list.neq x1 x6)
)
 (sl.list.neq x4 x8)
)
 (sl.list.neq x3 x6)
)
 (sl.list.neq x3 x11)
)
 (sl.list.neq x2 x6)
)
 (sl.list.neq x5 x8)
)
 (sl.list.neq x5 x7)
)
 (sl.sepcon (sl.sepcon (sl.sepcon (sl.sepcon (sl.sepcon (sl.sepcon (sl.sepcon (sl.sepcon (sl.sepcon (sl.sepcon (sl.sepcon (sl.sepcon (sl.sepcon (sl.sepcon (sl.list.seg x5 x6)
 (sl.list.seg x10 x2)
)
 (sl.list.seg x1 x7)
)
 (sl.list.seg x1 x8)
)
 (sl.list.seg x4 x6)
)
 (sl.list.seg x8 x1)
)
 (sl.list.seg x2 x11)
)
 (sl.list.seg x2 x8)
)
 (sl.list.seg x9 x3)
)
 (sl.list.seg x3 x2)
)
 (sl.list.seg x3 x8)
)
 (sl.list.seg x11 x10)
)
 (sl.list.seg x6 x5)
)
 (sl.list.seg x6 x10)
)
 (sl.list.seg x6 x7)
)
)
)

